(set-logic QF_NRA)
(set-info :source |Benchmarks generated from hycomp (https://es-static.fbk.eu/tools/hycomp/). BMC instances of non-linear hybrid automata taken from: Alessandro Cimatti, Sergio Mover, Stefano Tonetta, A quantifier-free SMT encoding of non-linear hybrid automata, FMCAD 2012 and Alessandro Cimatti, Sergio Mover, Stefano Tonetta, Quantier-free encoding of invariants for Hybrid Systems, Formal Methods in System Design. This instance solves a BMC problem of depth 3 and uses the encoding obtained with quantifier elimination using redlog encoding. Contacts: Sergio Mover (mover@fbk.eu), Stefano Tonetta (tonettas@fbk.eu), Alessandro Cimatti (cimatti@fbk.eu).|)
(set-info :smt-lib-version 2.0)
(set-info :category "industrial")
(set-info :status unsat)
;; MathSAT API call trace
;; generated on Mon Mar 19 10:40:28 2012
(declare-fun b.speed_x__AT2 () Real)
(declare-fun b.event_is_timed__AT1 () Bool)
(declare-fun b.counter.0__AT1 () Bool)
(declare-fun b.event_is_timed__AT3 () Bool)
(declare-fun b.speed_x__AT0 () Real)
(declare-fun b.speed_y__AT2 () Real)
(declare-fun b.counter.1__AT1 () Bool)
(declare-fun b.time__AT0 () Real)
(declare-fun b.counter.2__AT0 () Bool)
(declare-fun b.counter.2__AT1 () Bool)
(declare-fun b.counter.3__AT1 () Bool)
(declare-fun b.counter.3__AT3 () Bool)
(declare-fun b.event_is_timed__AT2 () Bool)
(declare-fun b.x__AT0 () Real)
(declare-fun b.time__AT3 () Real)
(declare-fun b.speed_x__AT1 () Real)
(declare-fun b.delta__AT3 () Real)
(declare-fun b.x__AT3 () Real)
(declare-fun b.time__AT1 () Real)
(declare-fun g__AT0 () Real)
(declare-fun b.y__AT0 () Real)
(declare-fun b.EVENT.0__AT1 () Bool)
(declare-fun b.speed_y__AT1 () Real)
(declare-fun b.EVENT.0__AT3 () Bool)
(declare-fun b.delta__AT1 () Real)
(declare-fun b.counter.0__AT0 () Bool)
(declare-fun b.counter.3__AT2 () Bool)
(declare-fun b.EVENT.1__AT1 () Bool)
(declare-fun b.EVENT.1__AT3 () Bool)
(declare-fun b.time__AT2 () Real)
(declare-fun b.delta__AT0 () Real)
(declare-fun b.counter.1__AT0 () Bool)
(declare-fun b.delta__AT2 () Real)
(declare-fun b.EVENT.0__AT0 () Bool)
(declare-fun b.x__AT2 () Real)
(declare-fun b.EVENT.0__AT2 () Bool)
(declare-fun b.event_is_timed__AT0 () Bool)
(declare-fun b.x__AT1 () Real)
(declare-fun b.EVENT.1__AT2 () Bool)
(declare-fun b.y__AT3 () Real)
(declare-fun b.speed_y__AT0 () Real)
(declare-fun b.counter.0__AT3 () Bool)
(declare-fun b.counter.1__AT3 () Bool)
(declare-fun b.counter.2__AT3 () Bool)
(declare-fun b.y__AT2 () Real)
(declare-fun b.counter.0__AT2 () Bool)
(declare-fun b.EVENT.1__AT0 () Bool)
(declare-fun b.counter.3__AT0 () Bool)
(declare-fun b.counter.1__AT2 () Bool)
(declare-fun b.y__AT4 () Real)
(declare-fun b.speed_x__AT3 () Real)
(declare-fun b.counter.2__AT2 () Bool)
(declare-fun b.speed_y__AT3 () Real)
(declare-fun speed_loss__AT0 () Real)
(declare-fun b.y__AT1 () Real)
(assert (let ((.def_950 (= b.y__AT3 b.y__AT4)))
(let ((.def_951 (not .def_950)))
(let ((.def_864 (* g__AT0 b.delta__AT3)))
(let ((.def_938 (<= b.speed_y__AT3 .def_864)))
(let ((.def_939 (not .def_938)))
(let ((.def_867 (* 2.0 b.speed_y__AT3)))
(let ((.def_868 (* b.delta__AT3 .def_867)))
(let ((.def_865 (* b.delta__AT3 .def_864)))
(let ((.def_866 (* (- 1.0) .def_865)))
(let ((.def_869 (+ .def_866 .def_868)))
(let ((.def_870 (* 2.0 b.y__AT3)))
(let ((.def_872 (+ .def_870 .def_869)))
(let ((.def_930 (= .def_872 0.0 )))
(let ((.def_931 (not .def_930)))
(let ((.def_940 (or .def_931 .def_939)))
(let ((.def_119 (* 2.0 g__AT0)))
(let ((.def_917 (* .def_119 b.speed_y__AT3)))
(let ((.def_918 (* b.delta__AT3 .def_917)))
(let ((.def_139 (* g__AT0 g__AT0)))
(let ((.def_914 (* .def_139 b.delta__AT3)))
(let ((.def_915 (* b.delta__AT3 .def_914)))
(let ((.def_916 (* (- 1.0) .def_915)))
(let ((.def_919 (+ .def_916 .def_918)))
(let ((.def_899 (* .def_119 b.y__AT3)))
(let ((.def_920 (+ .def_899 .def_919)))
(let ((.def_925 (<= 0.0 .def_920)))
(let ((.def_877 (* g__AT0 b.speed_y__AT3)))
(let ((.def_922 (<= .def_914 .def_877)))
(let ((.def_926 (or .def_922 .def_925)))
(let ((.def_941 (and .def_926 .def_940)))
(let ((.def_879 (* b.speed_y__AT3 b.speed_y__AT3)))
(let ((.def_900 (+ .def_879 .def_899)))
(let ((.def_935 (<= .def_900 0.0 )))
(let ((.def_936 (not .def_935)))
(let ((.def_135 (<= 0.0 g__AT0)))
(let ((.def_136 (not .def_135)))
(let ((.def_937 (or .def_136 .def_936)))
(let ((.def_942 (or .def_937 .def_941)))
(let ((.def_904 (* g__AT0 b.y__AT3)))
(let ((.def_908 (<= .def_904 0.0 )))
(let ((.def_907 (<= .def_877 0.0 )))
(let ((.def_909 (and .def_907 .def_908)))
(let ((.def_943 (or .def_909 .def_942)))
(let ((.def_928 (<= .def_864 b.speed_y__AT3)))
(let ((.def_929 (not .def_928)))
(let ((.def_932 (or .def_929 .def_931)))
(let ((.def_921 (<= .def_920 0.0 )))
(let ((.def_923 (and .def_921 .def_922)))
(let ((.def_924 (or .def_136 .def_923)))
(let ((.def_927 (and .def_924 .def_926)))
(let ((.def_933 (and .def_927 .def_932)))
(let ((.def_911 (= .def_900 0.0 )))
(let ((.def_912 (and .def_136 .def_911)))
(let ((.def_905 (<= 0.0 .def_904)))
(let ((.def_127 (<= g__AT0 0.0 )))
(let ((.def_128 (not .def_127)))
(let ((.def_906 (and .def_128 .def_905)))
(let ((.def_910 (or .def_906 .def_909)))
(let ((.def_913 (or .def_910 .def_912)))
(let ((.def_934 (or .def_913 .def_933)))
(let ((.def_944 (and .def_934 .def_943)))
(let ((.def_901 (<= 0.0 .def_900)))
(let ((.def_902 (not .def_901)))
(let ((.def_102 (= g__AT0 0.0 )))
(let ((.def_903 (or .def_102 .def_902)))
(let ((.def_945 (or .def_903 .def_944)))
(let ((.def_892 (* b.speed_y__AT3 b.delta__AT3)))
(let ((.def_893 (+ b.y__AT3 .def_892)))
(let ((.def_894 (= .def_893 0.0 )))
(let ((.def_895 (not .def_894)))
(let ((.def_889 (* b.delta__AT3 .def_879)))
(let ((.def_884 (* b.y__AT3 b.speed_y__AT3)))
(let ((.def_890 (+ .def_884 .def_889)))
(let ((.def_891 (<= .def_890 0.0 )))
(let ((.def_896 (and .def_891 .def_895)))
(let ((.def_887 (= b.speed_y__AT3 0.0 )))
(let ((.def_885 (<= 0.0 .def_884)))
(let ((.def_880 (* b.speed_y__AT3 .def_879)))
(let ((.def_878 (* b.y__AT3 .def_877)))
(let ((.def_881 (+ .def_878 .def_880)))
(let ((.def_882 (<= .def_881 0.0 )))
(let ((.def_103 (not .def_102)))
(let ((.def_883 (or .def_103 .def_882)))
(let ((.def_886 (or .def_883 .def_885)))
(let ((.def_888 (or .def_886 .def_887)))
(let ((.def_897 (or .def_888 .def_896)))
(let ((.def_874 (<= 0.0 b.delta__AT3)))
(let ((.def_875 (not .def_874)))
(let ((.def_873 (<= 0.0 .def_872)))
(let ((.def_876 (or .def_873 .def_875)))
(let ((.def_898 (and .def_876 .def_897)))
(let ((.def_946 (and .def_898 .def_945)))
(let ((.def_841 (not b.EVENT.0__AT3)))
(let ((.def_839 (not b.EVENT.1__AT3)))
(let ((.def_861 (and .def_839 .def_841)))
(let ((.def_947 (and .def_861 .def_946)))
(let ((.def_948 (not .def_947)))
(let ((.def_952 (or .def_948 .def_951)))
(let ((.def_862 (not .def_861)))
(let ((.def_953 (or .def_862 .def_952)))
(let ((.def_495 (not b.counter.0__AT2)))
(let ((.def_854 (or b.counter.1__AT2 .def_495)))
(let ((.def_855 (or b.counter.2__AT2 .def_854)))
(let ((.def_483 (not b.counter.1__AT2)))
(let ((.def_849 (and .def_483 .def_495)))
(let ((.def_490 (not b.counter.2__AT2)))
(let ((.def_853 (or .def_490 .def_849)))
(let ((.def_856 (and .def_853 .def_855)))
(let ((.def_857 (or b.counter.3__AT2 .def_856)))
(let ((.def_850 (or b.counter.2__AT2 .def_849)))
(let ((.def_848 (or .def_483 .def_490)))
(let ((.def_851 (and .def_848 .def_850)))
(let ((.def_505 (not b.counter.3__AT2)))
(let ((.def_852 (or .def_505 .def_851)))
(let ((.def_858 (and .def_852 .def_857)))
(let ((.def_844 (<= 0.0 b.y__AT3)))
(let ((.def_71 (<= speed_loss__AT0 (/ 1 2))))
(let ((.def_68 (<= (/ 1 10) speed_loss__AT0)))
(let ((.def_72 (and .def_68 .def_71)))
(let ((.def_63 (<= g__AT0 10.0 )))
(let ((.def_62 (<= 8.0 g__AT0)))
(let ((.def_64 (and .def_62 .def_63)))
(let ((.def_73 (and .def_64 .def_72)))
(let ((.def_845 (and .def_73 .def_844)))
(let ((.def_842 (or .def_839 .def_841)))
(let ((.def_9 (not b.counter.0__AT3)))
(let ((.def_6 (not b.counter.1__AT3)))
(let ((.def_832 (or .def_6 .def_9)))
(let ((.def_836 (or b.counter.3__AT3 .def_832)))
(let ((.def_833 (or b.counter.2__AT3 .def_832)))
(let ((.def_4 (not b.counter.2__AT3)))
(let ((.def_831 (or .def_4 .def_9)))
(let ((.def_834 (and .def_831 .def_833)))
(let ((.def_14 (not b.counter.3__AT3)))
(let ((.def_835 (or .def_14 .def_834)))
(let ((.def_837 (and .def_835 .def_836)))
(let ((.def_843 (and .def_837 .def_842)))
(let ((.def_846 (and .def_843 .def_845)))
(let ((.def_624 (<= 0.0 b.delta__AT2)))
(let ((.def_591 (not b.EVENT.0__AT2)))
(let ((.def_589 (not b.EVENT.1__AT2)))
(let ((.def_611 (and .def_589 .def_591)))
(let ((.def_612 (not .def_611)))
(let ((.def_827 (or .def_612 .def_624)))
(let ((.def_828 (or b.EVENT.1__AT2 .def_827)))
(let ((.def_777 (= b.counter.0__AT3 b.counter.0__AT2)))
(let ((.def_775 (= b.counter.1__AT3 b.counter.1__AT2)))
(let ((.def_773 (= b.counter.2__AT3 b.counter.2__AT2)))
(let ((.def_772 (= b.counter.3__AT3 b.counter.3__AT2)))
(let ((.def_774 (and .def_772 .def_773)))
(let ((.def_776 (and .def_774 .def_775)))
(let ((.def_778 (and .def_776 .def_777)))
(let ((.def_824 (or .def_612 .def_778)))
(let ((.def_825 (or b.EVENT.1__AT2 .def_824)))
(let ((.def_784 (= b.x__AT2 b.x__AT3)))
(let ((.def_700 (= b.y__AT2 b.y__AT3)))
(let ((.def_818 (and .def_700 .def_784)))
(let ((.def_712 (= b.speed_x__AT2 b.speed_x__AT3)))
(let ((.def_819 (and .def_712 .def_818)))
(let ((.def_771 (= b.speed_y__AT2 b.speed_y__AT3)))
(let ((.def_820 (and .def_771 .def_819)))
(let ((.def_815 (= b.delta__AT2 0.0 )))
(let ((.def_816 (and .def_611 .def_815)))
(let ((.def_817 (not .def_816)))
(let ((.def_821 (or .def_817 .def_820)))
(let ((.def_822 (or b.EVENT.1__AT2 .def_821)))
(let ((.def_795 (= b.time__AT2 b.time__AT3)))
(let ((.def_807 (and .def_784 .def_795)))
(let ((.def_808 (and .def_700 .def_807)))
(let ((.def_809 (and .def_712 .def_808)))
(let ((.def_810 (and .def_771 .def_809)))
(let ((.def_811 (and .def_778 .def_810)))
(let ((.def_812 (or .def_589 .def_811)))
(let ((.def_798 (* (- 1.0) b.time__AT3)))
(let ((.def_801 (+ b.delta__AT2 .def_798)))
(let ((.def_802 (+ b.time__AT2 .def_801)))
(let ((.def_803 (= .def_802 0.0 )))
(let ((.def_804 (or .def_612 .def_803)))
(let ((.def_805 (or b.EVENT.1__AT2 .def_804)))
(let ((.def_796 (or .def_611 .def_795)))
(let ((.def_797 (or b.EVENT.1__AT2 .def_796)))
(let ((.def_806 (and .def_797 .def_805)))
(let ((.def_813 (and .def_806 .def_812)))
(let ((.def_791 (= .def_612 b.event_is_timed__AT3)))
(let ((.def_789 (= b.event_is_timed__AT2 .def_611)))
(let ((.def_792 (and .def_789 .def_791)))
(let ((.def_779 (and .def_771 .def_778)))
(let ((.def_734 (<= 0.0 b.speed_y__AT2)))
(let ((.def_735 (not .def_734)))
(let ((.def_733 (= b.y__AT2 0.0 )))
(let ((.def_736 (and .def_733 .def_735)))
(let ((.def_780 (or .def_736 .def_779)))
(let ((.def_748 (or .def_9 b.counter.0__AT2)))
(let ((.def_747 (or b.counter.0__AT3 .def_495)))
(let ((.def_749 (and .def_747 .def_748)))
(let ((.def_750 (and .def_6 .def_749)))
(let ((.def_751 (or b.counter.1__AT2 .def_750)))
(let ((.def_746 (or b.counter.1__AT3 .def_483)))
(let ((.def_752 (and .def_746 .def_751)))
(let ((.def_763 (and .def_4 .def_752)))
(let ((.def_764 (or b.counter.2__AT2 .def_763)))
(let ((.def_758 (and .def_6 .def_495)))
(let ((.def_759 (or b.counter.1__AT2 .def_758)))
(let ((.def_760 (and .def_746 .def_759)))
(let ((.def_761 (and b.counter.2__AT3 .def_760)))
(let ((.def_762 (or .def_490 .def_761)))
(let ((.def_765 (and .def_762 .def_764)))
(let ((.def_766 (and b.counter.3__AT3 .def_765)))
(let ((.def_767 (or b.counter.3__AT2 .def_766)))
(let ((.def_753 (and b.counter.2__AT3 .def_752)))
(let ((.def_754 (or b.counter.2__AT2 .def_753)))
(let ((.def_742 (or b.counter.1__AT3 b.counter.1__AT2)))
(let ((.def_740 (and .def_6 b.counter.0__AT3)))
(let ((.def_741 (or .def_483 .def_740)))
(let ((.def_743 (and .def_741 .def_742)))
(let ((.def_744 (and .def_4 .def_743)))
(let ((.def_745 (or .def_490 .def_744)))
(let ((.def_755 (and .def_745 .def_754)))
(let ((.def_756 (and .def_14 .def_755)))
(let ((.def_757 (or .def_505 .def_756)))
(let ((.def_768 (and .def_757 .def_767)))
(let ((.def_458 (* (- 1.0) b.speed_y__AT2)))
(let ((.def_220 (* (- 1.0) speed_loss__AT0)))
(let ((.def_221 (+ 1.0 .def_220)))
(let ((.def_738 (* .def_221 .def_458)))
(let ((.def_739 (= b.speed_y__AT3 .def_738)))
(let ((.def_769 (and .def_739 .def_768)))
(let ((.def_737 (not .def_736)))
(let ((.def_770 (or .def_737 .def_769)))
(let ((.def_781 (and .def_770 .def_780)))
(let ((.def_782 (and .def_700 .def_781)))
(let ((.def_783 (and .def_712 .def_782)))
(let ((.def_785 (and .def_783 .def_784)))
(let ((.def_786 (or .def_611 .def_785)))
(let ((.def_787 (or b.EVENT.1__AT2 .def_786)))
(let ((.def_721 (* b.delta__AT2 b.delta__AT2)))
(let ((.def_194 (* (- 1.0) g__AT0)))
(let ((.def_202 (* (/ 1 2) .def_194)))
(let ((.def_722 (* .def_202 .def_721)))
(let ((.def_724 (* (- 1.0) b.y__AT3)))
(let ((.def_727 (+ .def_724 .def_722)))
(let ((.def_642 (* b.speed_y__AT2 b.delta__AT2)))
(let ((.def_728 (+ .def_642 .def_727)))
(let ((.def_729 (+ b.y__AT2 .def_728)))
(let ((.def_730 (= .def_729 0.0 )))
(let ((.def_716 (* (- 1.0) b.speed_y__AT3)))
(let ((.def_714 (* .def_194 b.delta__AT2)))
(let ((.def_717 (+ .def_714 .def_716)))
(let ((.def_718 (+ b.speed_y__AT2 .def_717)))
(let ((.def_719 (= .def_718 0.0 )))
(let ((.def_707 (* (- 1.0) b.x__AT3)))
(let ((.def_705 (* b.speed_x__AT2 b.delta__AT2)))
(let ((.def_708 (+ .def_705 .def_707)))
(let ((.def_709 (+ b.x__AT2 .def_708)))
(let ((.def_710 (= .def_709 0.0 )))
(let ((.def_713 (and .def_710 .def_712)))
(let ((.def_720 (and .def_713 .def_719)))
(let ((.def_731 (and .def_720 .def_730)))
(let ((.def_732 (or .def_612 .def_731)))
(let ((.def_788 (and .def_732 .def_787)))
(let ((.def_793 (and .def_788 .def_792)))
(let ((.def_814 (and .def_793 .def_813)))
(let ((.def_823 (and .def_814 .def_822)))
(let ((.def_826 (and .def_823 .def_825)))
(let ((.def_829 (and .def_826 .def_828)))
(let ((.def_830 (and .def_589 .def_829)))
(let ((.def_847 (and .def_830 .def_846)))
(let ((.def_859 (and .def_847 .def_858)))
(let ((.def_701 (not .def_700)))
(let ((.def_614 (* g__AT0 b.delta__AT2)))
(let ((.def_688 (<= b.speed_y__AT2 .def_614)))
(let ((.def_689 (not .def_688)))
(let ((.def_617 (* 2.0 b.speed_y__AT2)))
(let ((.def_618 (* b.delta__AT2 .def_617)))
(let ((.def_615 (* b.delta__AT2 .def_614)))
(let ((.def_616 (* (- 1.0) .def_615)))
(let ((.def_619 (+ .def_616 .def_618)))
(let ((.def_620 (* 2.0 b.y__AT2)))
(let ((.def_622 (+ .def_620 .def_619)))
(let ((.def_680 (= .def_622 0.0 )))
(let ((.def_681 (not .def_680)))
(let ((.def_690 (or .def_681 .def_689)))
(let ((.def_667 (* .def_119 b.speed_y__AT2)))
(let ((.def_668 (* b.delta__AT2 .def_667)))
(let ((.def_664 (* .def_139 b.delta__AT2)))
(let ((.def_665 (* b.delta__AT2 .def_664)))
(let ((.def_666 (* (- 1.0) .def_665)))
(let ((.def_669 (+ .def_666 .def_668)))
(let ((.def_649 (* .def_119 b.y__AT2)))
(let ((.def_670 (+ .def_649 .def_669)))
(let ((.def_675 (<= 0.0 .def_670)))
(let ((.def_627 (* g__AT0 b.speed_y__AT2)))
(let ((.def_672 (<= .def_664 .def_627)))
(let ((.def_676 (or .def_672 .def_675)))
(let ((.def_691 (and .def_676 .def_690)))
(let ((.def_629 (* b.speed_y__AT2 b.speed_y__AT2)))
(let ((.def_650 (+ .def_629 .def_649)))
(let ((.def_685 (<= .def_650 0.0 )))
(let ((.def_686 (not .def_685)))
(let ((.def_687 (or .def_136 .def_686)))
(let ((.def_692 (or .def_687 .def_691)))
(let ((.def_654 (* g__AT0 b.y__AT2)))
(let ((.def_658 (<= .def_654 0.0 )))
(let ((.def_657 (<= .def_627 0.0 )))
(let ((.def_659 (and .def_657 .def_658)))
(let ((.def_693 (or .def_659 .def_692)))
(let ((.def_678 (<= .def_614 b.speed_y__AT2)))
(let ((.def_679 (not .def_678)))
(let ((.def_682 (or .def_679 .def_681)))
(let ((.def_671 (<= .def_670 0.0 )))
(let ((.def_673 (and .def_671 .def_672)))
(let ((.def_674 (or .def_136 .def_673)))
(let ((.def_677 (and .def_674 .def_676)))
(let ((.def_683 (and .def_677 .def_682)))
(let ((.def_661 (= .def_650 0.0 )))
(let ((.def_662 (and .def_136 .def_661)))
(let ((.def_655 (<= 0.0 .def_654)))
(let ((.def_656 (and .def_128 .def_655)))
(let ((.def_660 (or .def_656 .def_659)))
(let ((.def_663 (or .def_660 .def_662)))
(let ((.def_684 (or .def_663 .def_683)))
(let ((.def_694 (and .def_684 .def_693)))
(let ((.def_651 (<= 0.0 .def_650)))
(let ((.def_652 (not .def_651)))
(let ((.def_653 (or .def_102 .def_652)))
(let ((.def_695 (or .def_653 .def_694)))
(let ((.def_643 (+ b.y__AT2 .def_642)))
(let ((.def_644 (= .def_643 0.0 )))
(let ((.def_645 (not .def_644)))
(let ((.def_639 (* b.delta__AT2 .def_629)))
(let ((.def_634 (* b.y__AT2 b.speed_y__AT2)))
(let ((.def_640 (+ .def_634 .def_639)))
(let ((.def_641 (<= .def_640 0.0 )))
(let ((.def_646 (and .def_641 .def_645)))
(let ((.def_637 (= b.speed_y__AT2 0.0 )))
(let ((.def_635 (<= 0.0 .def_634)))
(let ((.def_630 (* b.speed_y__AT2 .def_629)))
(let ((.def_628 (* b.y__AT2 .def_627)))
(let ((.def_631 (+ .def_628 .def_630)))
(let ((.def_632 (<= .def_631 0.0 )))
(let ((.def_633 (or .def_103 .def_632)))
(let ((.def_636 (or .def_633 .def_635)))
(let ((.def_638 (or .def_636 .def_637)))
(let ((.def_647 (or .def_638 .def_646)))
(let ((.def_625 (not .def_624)))
(let ((.def_623 (<= 0.0 .def_622)))
(let ((.def_626 (or .def_623 .def_625)))
(let ((.def_648 (and .def_626 .def_647)))
(let ((.def_696 (and .def_648 .def_695)))
(let ((.def_697 (and .def_611 .def_696)))
(let ((.def_698 (not .def_697)))
(let ((.def_702 (or .def_698 .def_701)))
(let ((.def_703 (or .def_612 .def_702)))
(let ((.def_238 (not b.counter.0__AT1)))
(let ((.def_604 (or b.counter.1__AT1 .def_238)))
(let ((.def_605 (or b.counter.2__AT1 .def_604)))
(let ((.def_226 (not b.counter.1__AT1)))
(let ((.def_599 (and .def_226 .def_238)))
(let ((.def_233 (not b.counter.2__AT1)))
(let ((.def_603 (or .def_233 .def_599)))
(let ((.def_606 (and .def_603 .def_605)))
(let ((.def_607 (or b.counter.3__AT1 .def_606)))
(let ((.def_600 (or b.counter.2__AT1 .def_599)))
(let ((.def_598 (or .def_226 .def_233)))
(let ((.def_601 (and .def_598 .def_600)))
(let ((.def_248 (not b.counter.3__AT1)))
(let ((.def_602 (or .def_248 .def_601)))
(let ((.def_608 (and .def_602 .def_607)))
(let ((.def_594 (<= 0.0 b.y__AT2)))
(let ((.def_595 (and .def_73 .def_594)))
(let ((.def_592 (or .def_589 .def_591)))
(let ((.def_582 (or .def_483 .def_495)))
(let ((.def_586 (or b.counter.3__AT2 .def_582)))
(let ((.def_583 (or b.counter.2__AT2 .def_582)))
(let ((.def_581 (or .def_490 .def_495)))
(let ((.def_584 (and .def_581 .def_583)))
(let ((.def_585 (or .def_505 .def_584)))
(let ((.def_587 (and .def_585 .def_586)))
(let ((.def_593 (and .def_587 .def_592)))
(let ((.def_596 (and .def_593 .def_595)))
(let ((.def_366 (<= 0.0 b.delta__AT1)))
(let ((.def_334 (not b.EVENT.0__AT1)))
(let ((.def_332 (not b.EVENT.1__AT1)))
(let ((.def_353 (and .def_332 .def_334)))
(let ((.def_354 (not .def_353)))
(let ((.def_577 (or .def_354 .def_366)))
(let ((.def_578 (or b.EVENT.1__AT1 .def_577)))
(let ((.def_527 (= b.counter.0__AT1 b.counter.0__AT2)))
(let ((.def_525 (= b.counter.1__AT1 b.counter.1__AT2)))
(let ((.def_523 (= b.counter.2__AT1 b.counter.2__AT2)))
(let ((.def_522 (= b.counter.3__AT1 b.counter.3__AT2)))
(let ((.def_524 (and .def_522 .def_523)))
(let ((.def_526 (and .def_524 .def_525)))
(let ((.def_528 (and .def_526 .def_527)))
(let ((.def_574 (or .def_354 .def_528)))
(let ((.def_575 (or b.EVENT.1__AT1 .def_574)))
(let ((.def_534 (= b.x__AT1 b.x__AT2)))
(let ((.def_442 (= b.y__AT1 b.y__AT2)))
(let ((.def_568 (and .def_442 .def_534)))
(let ((.def_454 (= b.speed_x__AT1 b.speed_x__AT2)))
(let ((.def_569 (and .def_454 .def_568)))
(let ((.def_521 (= b.speed_y__AT1 b.speed_y__AT2)))
(let ((.def_570 (and .def_521 .def_569)))
(let ((.def_565 (= b.delta__AT1 0.0 )))
(let ((.def_566 (and .def_353 .def_565)))
(let ((.def_567 (not .def_566)))
(let ((.def_571 (or .def_567 .def_570)))
(let ((.def_572 (or b.EVENT.1__AT1 .def_571)))
(let ((.def_545 (= b.time__AT1 b.time__AT2)))
(let ((.def_557 (and .def_534 .def_545)))
(let ((.def_558 (and .def_442 .def_557)))
(let ((.def_559 (and .def_454 .def_558)))
(let ((.def_560 (and .def_521 .def_559)))
(let ((.def_561 (and .def_528 .def_560)))
(let ((.def_562 (or .def_332 .def_561)))
(let ((.def_548 (* (- 1.0) b.time__AT2)))
(let ((.def_551 (+ b.delta__AT1 .def_548)))
(let ((.def_552 (+ b.time__AT1 .def_551)))
(let ((.def_553 (= .def_552 0.0 )))
(let ((.def_554 (or .def_354 .def_553)))
(let ((.def_555 (or b.EVENT.1__AT1 .def_554)))
(let ((.def_546 (or .def_353 .def_545)))
(let ((.def_547 (or b.EVENT.1__AT1 .def_546)))
(let ((.def_556 (and .def_547 .def_555)))
(let ((.def_563 (and .def_556 .def_562)))
(let ((.def_541 (= .def_354 b.event_is_timed__AT2)))
(let ((.def_539 (= b.event_is_timed__AT1 .def_353)))
(let ((.def_542 (and .def_539 .def_541)))
(let ((.def_529 (and .def_521 .def_528)))
(let ((.def_476 (<= 0.0 b.speed_y__AT1)))
(let ((.def_477 (not .def_476)))
(let ((.def_475 (= b.y__AT1 0.0 )))
(let ((.def_478 (and .def_475 .def_477)))
(let ((.def_530 (or .def_478 .def_529)))
(let ((.def_496 (or b.counter.0__AT1 .def_495)))
(let ((.def_494 (or .def_238 b.counter.0__AT2)))
(let ((.def_497 (and .def_494 .def_496)))
(let ((.def_498 (and .def_483 .def_497)))
(let ((.def_499 (or b.counter.1__AT1 .def_498)))
(let ((.def_493 (or .def_226 b.counter.1__AT2)))
(let ((.def_500 (and .def_493 .def_499)))
(let ((.def_513 (and .def_490 .def_500)))
(let ((.def_514 (or b.counter.2__AT1 .def_513)))
(let ((.def_508 (and .def_238 .def_483)))
(let ((.def_509 (or b.counter.1__AT1 .def_508)))
(let ((.def_510 (and .def_493 .def_509)))
(let ((.def_511 (and b.counter.2__AT2 .def_510)))
(let ((.def_512 (or .def_233 .def_511)))
(let ((.def_515 (and .def_512 .def_514)))
(let ((.def_516 (and b.counter.3__AT2 .def_515)))
(let ((.def_517 (or b.counter.3__AT1 .def_516)))
(let ((.def_501 (and b.counter.2__AT2 .def_500)))
(let ((.def_502 (or b.counter.2__AT1 .def_501)))
(let ((.def_487 (or b.counter.1__AT1 b.counter.1__AT2)))
(let ((.def_485 (and .def_483 b.counter.0__AT2)))
(let ((.def_486 (or .def_226 .def_485)))
(let ((.def_488 (and .def_486 .def_487)))
(let ((.def_491 (and .def_488 .def_490)))
(let ((.def_492 (or .def_233 .def_491)))
(let ((.def_503 (and .def_492 .def_502)))
(let ((.def_506 (and .def_503 .def_505)))
(let ((.def_507 (or .def_248 .def_506)))
(let ((.def_518 (and .def_507 .def_517)))
(let ((.def_197 (* (- 1.0) b.speed_y__AT1)))
(let ((.def_480 (* .def_197 .def_221)))
(let ((.def_481 (= b.speed_y__AT2 .def_480)))
(let ((.def_519 (and .def_481 .def_518)))
(let ((.def_479 (not .def_478)))
(let ((.def_520 (or .def_479 .def_519)))
(let ((.def_531 (and .def_520 .def_530)))
(let ((.def_532 (and .def_442 .def_531)))
(let ((.def_533 (and .def_454 .def_532)))
(let ((.def_535 (and .def_533 .def_534)))
(let ((.def_536 (or .def_353 .def_535)))
(let ((.def_537 (or b.EVENT.1__AT1 .def_536)))
(let ((.def_463 (* b.delta__AT1 b.delta__AT1)))
(let ((.def_464 (* .def_202 .def_463)))
(let ((.def_466 (* (- 1.0) b.y__AT2)))
(let ((.def_469 (+ .def_466 .def_464)))
(let ((.def_384 (* b.speed_y__AT1 b.delta__AT1)))
(let ((.def_470 (+ .def_384 .def_469)))
(let ((.def_471 (+ b.y__AT1 .def_470)))
(let ((.def_472 (= .def_471 0.0 )))
(let ((.def_456 (* .def_194 b.delta__AT1)))
(let ((.def_459 (+ .def_456 .def_458)))
(let ((.def_460 (+ b.speed_y__AT1 .def_459)))
(let ((.def_461 (= .def_460 0.0 )))
(let ((.def_449 (* (- 1.0) b.x__AT2)))
(let ((.def_447 (* b.speed_x__AT1 b.delta__AT1)))
(let ((.def_450 (+ .def_447 .def_449)))
(let ((.def_451 (+ b.x__AT1 .def_450)))
(let ((.def_452 (= .def_451 0.0 )))
(let ((.def_455 (and .def_452 .def_454)))
(let ((.def_462 (and .def_455 .def_461)))
(let ((.def_473 (and .def_462 .def_472)))
(let ((.def_474 (or .def_354 .def_473)))
(let ((.def_538 (and .def_474 .def_537)))
(let ((.def_543 (and .def_538 .def_542)))
(let ((.def_564 (and .def_543 .def_563)))
(let ((.def_573 (and .def_564 .def_572)))
(let ((.def_576 (and .def_573 .def_575)))
(let ((.def_579 (and .def_576 .def_578)))
(let ((.def_580 (and .def_332 .def_579)))
(let ((.def_597 (and .def_580 .def_596)))
(let ((.def_609 (and .def_597 .def_608)))
(let ((.def_443 (not .def_442)))
(let ((.def_356 (* g__AT0 b.delta__AT1)))
(let ((.def_430 (<= b.speed_y__AT1 .def_356)))
(let ((.def_431 (not .def_430)))
(let ((.def_359 (* 2.0 b.speed_y__AT1)))
(let ((.def_360 (* b.delta__AT1 .def_359)))
(let ((.def_357 (* b.delta__AT1 .def_356)))
(let ((.def_358 (* (- 1.0) .def_357)))
(let ((.def_361 (+ .def_358 .def_360)))
(let ((.def_362 (* 2.0 b.y__AT1)))
(let ((.def_364 (+ .def_362 .def_361)))
(let ((.def_422 (= .def_364 0.0 )))
(let ((.def_423 (not .def_422)))
(let ((.def_432 (or .def_423 .def_431)))
(let ((.def_409 (* .def_119 b.speed_y__AT1)))
(let ((.def_410 (* b.delta__AT1 .def_409)))
(let ((.def_406 (* .def_139 b.delta__AT1)))
(let ((.def_407 (* b.delta__AT1 .def_406)))
(let ((.def_408 (* (- 1.0) .def_407)))
(let ((.def_411 (+ .def_408 .def_410)))
(let ((.def_391 (* .def_119 b.y__AT1)))
(let ((.def_412 (+ .def_391 .def_411)))
(let ((.def_417 (<= 0.0 .def_412)))
(let ((.def_369 (* g__AT0 b.speed_y__AT1)))
(let ((.def_414 (<= .def_406 .def_369)))
(let ((.def_418 (or .def_414 .def_417)))
(let ((.def_433 (and .def_418 .def_432)))
(let ((.def_371 (* b.speed_y__AT1 b.speed_y__AT1)))
(let ((.def_392 (+ .def_371 .def_391)))
(let ((.def_427 (<= .def_392 0.0 )))
(let ((.def_428 (not .def_427)))
(let ((.def_429 (or .def_136 .def_428)))
(let ((.def_434 (or .def_429 .def_433)))
(let ((.def_396 (* g__AT0 b.y__AT1)))
(let ((.def_400 (<= .def_396 0.0 )))
(let ((.def_399 (<= .def_369 0.0 )))
(let ((.def_401 (and .def_399 .def_400)))
(let ((.def_435 (or .def_401 .def_434)))
(let ((.def_420 (<= .def_356 b.speed_y__AT1)))
(let ((.def_421 (not .def_420)))
(let ((.def_424 (or .def_421 .def_423)))
(let ((.def_413 (<= .def_412 0.0 )))
(let ((.def_415 (and .def_413 .def_414)))
(let ((.def_416 (or .def_136 .def_415)))
(let ((.def_419 (and .def_416 .def_418)))
(let ((.def_425 (and .def_419 .def_424)))
(let ((.def_403 (= .def_392 0.0 )))
(let ((.def_404 (and .def_136 .def_403)))
(let ((.def_397 (<= 0.0 .def_396)))
(let ((.def_398 (and .def_128 .def_397)))
(let ((.def_402 (or .def_398 .def_401)))
(let ((.def_405 (or .def_402 .def_404)))
(let ((.def_426 (or .def_405 .def_425)))
(let ((.def_436 (and .def_426 .def_435)))
(let ((.def_393 (<= 0.0 .def_392)))
(let ((.def_394 (not .def_393)))
(let ((.def_395 (or .def_102 .def_394)))
(let ((.def_437 (or .def_395 .def_436)))
(let ((.def_385 (+ b.y__AT1 .def_384)))
(let ((.def_386 (= .def_385 0.0 )))
(let ((.def_387 (not .def_386)))
(let ((.def_381 (* b.delta__AT1 .def_371)))
(let ((.def_376 (* b.y__AT1 b.speed_y__AT1)))
(let ((.def_382 (+ .def_376 .def_381)))
(let ((.def_383 (<= .def_382 0.0 )))
(let ((.def_388 (and .def_383 .def_387)))
(let ((.def_379 (= b.speed_y__AT1 0.0 )))
(let ((.def_377 (<= 0.0 .def_376)))
(let ((.def_372 (* b.speed_y__AT1 .def_371)))
(let ((.def_370 (* b.y__AT1 .def_369)))
(let ((.def_373 (+ .def_370 .def_372)))
(let ((.def_374 (<= .def_373 0.0 )))
(let ((.def_375 (or .def_103 .def_374)))
(let ((.def_378 (or .def_375 .def_377)))
(let ((.def_380 (or .def_378 .def_379)))
(let ((.def_389 (or .def_380 .def_388)))
(let ((.def_367 (not .def_366)))
(let ((.def_365 (<= 0.0 .def_364)))
(let ((.def_368 (or .def_365 .def_367)))
(let ((.def_390 (and .def_368 .def_389)))
(let ((.def_438 (and .def_390 .def_437)))
(let ((.def_439 (and .def_353 .def_438)))
(let ((.def_440 (not .def_439)))
(let ((.def_444 (or .def_440 .def_443)))
(let ((.def_445 (or .def_354 .def_444)))
(let ((.def_38 (not b.counter.0__AT0)))
(let ((.def_346 (or b.counter.1__AT0 .def_38)))
(let ((.def_347 (or b.counter.2__AT0 .def_346)))
(let ((.def_41 (not b.counter.2__AT0)))
(let ((.def_36 (not b.counter.1__AT0)))
(let ((.def_39 (and .def_36 .def_38)))
(let ((.def_345 (or .def_39 .def_41)))
(let ((.def_348 (and .def_345 .def_347)))
(let ((.def_349 (or b.counter.3__AT0 .def_348)))
(let ((.def_342 (or .def_39 b.counter.2__AT0)))
(let ((.def_341 (or .def_36 .def_41)))
(let ((.def_343 (and .def_341 .def_342)))
(let ((.def_44 (not b.counter.3__AT0)))
(let ((.def_344 (or .def_44 .def_343)))
(let ((.def_350 (and .def_344 .def_349)))
(let ((.def_337 (<= 0.0 b.y__AT1)))
(let ((.def_338 (and .def_73 .def_337)))
(let ((.def_335 (or .def_332 .def_334)))
(let ((.def_325 (or .def_226 .def_238)))
(let ((.def_329 (or b.counter.3__AT1 .def_325)))
(let ((.def_326 (or b.counter.2__AT1 .def_325)))
(let ((.def_324 (or .def_233 .def_238)))
(let ((.def_327 (and .def_324 .def_326)))
(let ((.def_328 (or .def_248 .def_327)))
(let ((.def_330 (and .def_328 .def_329)))
(let ((.def_336 (and .def_330 .def_335)))
(let ((.def_339 (and .def_336 .def_338)))
(let ((.def_93 (<= 0.0 b.delta__AT0)))
(let ((.def_57 (not b.EVENT.0__AT0)))
(let ((.def_55 (not b.EVENT.1__AT0)))
(let ((.def_79 (and .def_55 .def_57)))
(let ((.def_80 (not .def_79)))
(let ((.def_320 (or .def_80 .def_93)))
(let ((.def_321 (or b.EVENT.1__AT0 .def_320)))
(let ((.def_270 (= b.counter.0__AT0 b.counter.0__AT1)))
(let ((.def_268 (= b.counter.1__AT0 b.counter.1__AT1)))
(let ((.def_266 (= b.counter.2__AT0 b.counter.2__AT1)))
(let ((.def_265 (= b.counter.3__AT0 b.counter.3__AT1)))
(let ((.def_267 (and .def_265 .def_266)))
(let ((.def_269 (and .def_267 .def_268)))
(let ((.def_271 (and .def_269 .def_270)))
(let ((.def_317 (or .def_80 .def_271)))
(let ((.def_318 (or b.EVENT.1__AT0 .def_317)))
(let ((.def_277 (= b.x__AT1 b.x__AT0)))
(let ((.def_176 (= b.y__AT0 b.y__AT1)))
(let ((.def_311 (and .def_176 .def_277)))
(let ((.def_192 (= b.speed_x__AT0 b.speed_x__AT1)))
(let ((.def_312 (and .def_192 .def_311)))
(let ((.def_264 (= b.speed_y__AT0 b.speed_y__AT1)))
(let ((.def_313 (and .def_264 .def_312)))
(let ((.def_308 (= b.delta__AT0 0.0 )))
(let ((.def_309 (and .def_79 .def_308)))
(let ((.def_310 (not .def_309)))
(let ((.def_314 (or .def_310 .def_313)))
(let ((.def_315 (or b.EVENT.1__AT0 .def_314)))
(let ((.def_288 (= b.time__AT0 b.time__AT1)))
(let ((.def_300 (and .def_277 .def_288)))
(let ((.def_301 (and .def_176 .def_300)))
(let ((.def_302 (and .def_192 .def_301)))
(let ((.def_303 (and .def_264 .def_302)))
(let ((.def_304 (and .def_271 .def_303)))
(let ((.def_305 (or .def_55 .def_304)))
(let ((.def_291 (* (- 1.0) b.time__AT1)))
(let ((.def_294 (+ b.delta__AT0 .def_291)))
(let ((.def_295 (+ b.time__AT0 .def_294)))
(let ((.def_296 (= .def_295 0.0 )))
(let ((.def_297 (or .def_80 .def_296)))
(let ((.def_298 (or b.EVENT.1__AT0 .def_297)))
(let ((.def_289 (or .def_79 .def_288)))
(let ((.def_290 (or b.EVENT.1__AT0 .def_289)))
(let ((.def_299 (and .def_290 .def_298)))
(let ((.def_306 (and .def_299 .def_305)))
(let ((.def_284 (= .def_80 b.event_is_timed__AT1)))
(let ((.def_282 (= b.event_is_timed__AT0 .def_79)))
(let ((.def_285 (and .def_282 .def_284)))
(let ((.def_272 (and .def_264 .def_271)))
(let ((.def_216 (<= 0.0 b.speed_y__AT0)))
(let ((.def_217 (not .def_216)))
(let ((.def_215 (= b.y__AT0 0.0 )))
(let ((.def_218 (and .def_215 .def_217)))
(let ((.def_273 (or .def_218 .def_272)))
(let ((.def_239 (or b.counter.0__AT0 .def_238)))
(let ((.def_237 (or .def_38 b.counter.0__AT1)))
(let ((.def_240 (and .def_237 .def_239)))
(let ((.def_241 (and .def_226 .def_240)))
(let ((.def_242 (or b.counter.1__AT0 .def_241)))
(let ((.def_236 (or .def_36 b.counter.1__AT1)))
(let ((.def_243 (and .def_236 .def_242)))
(let ((.def_256 (and .def_233 .def_243)))
(let ((.def_257 (or b.counter.2__AT0 .def_256)))
(let ((.def_251 (and .def_38 .def_226)))
(let ((.def_252 (or b.counter.1__AT0 .def_251)))
(let ((.def_253 (and .def_236 .def_252)))
(let ((.def_254 (and b.counter.2__AT1 .def_253)))
(let ((.def_255 (or .def_41 .def_254)))
(let ((.def_258 (and .def_255 .def_257)))
(let ((.def_259 (and b.counter.3__AT1 .def_258)))
(let ((.def_260 (or b.counter.3__AT0 .def_259)))
(let ((.def_244 (and b.counter.2__AT1 .def_243)))
(let ((.def_245 (or b.counter.2__AT0 .def_244)))
(let ((.def_230 (or b.counter.1__AT0 b.counter.1__AT1)))
(let ((.def_228 (and .def_226 b.counter.0__AT1)))
(let ((.def_229 (or .def_36 .def_228)))
(let ((.def_231 (and .def_229 .def_230)))
(let ((.def_234 (and .def_231 .def_233)))
(let ((.def_235 (or .def_41 .def_234)))
(let ((.def_246 (and .def_235 .def_245)))
(let ((.def_249 (and .def_246 .def_248)))
(let ((.def_250 (or .def_44 .def_249)))
(let ((.def_261 (and .def_250 .def_260)))
(let ((.def_222 (* (- 1.0) b.speed_y__AT0)))
(let ((.def_223 (* .def_221 .def_222)))
(let ((.def_224 (= b.speed_y__AT1 .def_223)))
(let ((.def_262 (and .def_224 .def_261)))
(let ((.def_219 (not .def_218)))
(let ((.def_263 (or .def_219 .def_262)))
(let ((.def_274 (and .def_263 .def_273)))
(let ((.def_275 (and .def_176 .def_274)))
(let ((.def_276 (and .def_192 .def_275)))
(let ((.def_278 (and .def_276 .def_277)))
(let ((.def_279 (or .def_79 .def_278)))
(let ((.def_280 (or b.EVENT.1__AT0 .def_279)))
(let ((.def_203 (* b.delta__AT0 b.delta__AT0)))
(let ((.def_204 (* .def_202 .def_203)))
(let ((.def_206 (* (- 1.0) b.y__AT1)))
(let ((.def_209 (+ .def_206 .def_204)))
(let ((.def_112 (* b.speed_y__AT0 b.delta__AT0)))
(let ((.def_210 (+ .def_112 .def_209)))
(let ((.def_211 (+ b.y__AT0 .def_210)))
(let ((.def_212 (= .def_211 0.0 )))
(let ((.def_195 (* b.delta__AT0 .def_194)))
(let ((.def_198 (+ .def_195 .def_197)))
(let ((.def_199 (+ b.speed_y__AT0 .def_198)))
(let ((.def_200 (= .def_199 0.0 )))
(let ((.def_184 (* (- 1.0) b.x__AT1)))
(let ((.def_188 (+ .def_184 b.x__AT0)))
(let ((.def_182 (* b.delta__AT0 b.speed_x__AT0)))
(let ((.def_189 (+ .def_182 .def_188)))
(let ((.def_190 (= .def_189 0.0 )))
(let ((.def_193 (and .def_190 .def_192)))
(let ((.def_201 (and .def_193 .def_200)))
(let ((.def_213 (and .def_201 .def_212)))
(let ((.def_214 (or .def_80 .def_213)))
(let ((.def_281 (and .def_214 .def_280)))
(let ((.def_286 (and .def_281 .def_285)))
(let ((.def_307 (and .def_286 .def_306)))
(let ((.def_316 (and .def_307 .def_315)))
(let ((.def_319 (and .def_316 .def_318)))
(let ((.def_322 (and .def_319 .def_321)))
(let ((.def_323 (and .def_55 .def_322)))
(let ((.def_340 (and .def_323 .def_339)))
(let ((.def_351 (and .def_340 .def_350)))
(let ((.def_177 (not .def_176)))
(let ((.def_82 (* g__AT0 b.delta__AT0)))
(let ((.def_164 (<= b.speed_y__AT0 .def_82)))
(let ((.def_165 (not .def_164)))
(let ((.def_86 (* 2.0 b.speed_y__AT0)))
(let ((.def_87 (* b.delta__AT0 .def_86)))
(let ((.def_83 (* b.delta__AT0 .def_82)))
(let ((.def_85 (* (- 1.0) .def_83)))
(let ((.def_88 (+ .def_85 .def_87)))
(let ((.def_89 (* 2.0 b.y__AT0)))
(let ((.def_91 (+ .def_89 .def_88)))
(let ((.def_156 (= .def_91 0.0 )))
(let ((.def_157 (not .def_156)))
(let ((.def_166 (or .def_157 .def_165)))
(let ((.def_143 (* b.speed_y__AT0 .def_119)))
(let ((.def_144 (* b.delta__AT0 .def_143)))
(let ((.def_140 (* b.delta__AT0 .def_139)))
(let ((.def_141 (* b.delta__AT0 .def_140)))
(let ((.def_142 (* (- 1.0) .def_141)))
(let ((.def_145 (+ .def_142 .def_144)))
(let ((.def_120 (* b.y__AT0 .def_119)))
(let ((.def_146 (+ .def_120 .def_145)))
(let ((.def_151 (<= 0.0 .def_146)))
(let ((.def_96 (* b.speed_y__AT0 g__AT0)))
(let ((.def_148 (<= .def_140 .def_96)))
(let ((.def_152 (or .def_148 .def_151)))
(let ((.def_167 (and .def_152 .def_166)))
(let ((.def_98 (* b.speed_y__AT0 b.speed_y__AT0)))
(let ((.def_121 (+ .def_98 .def_120)))
(let ((.def_161 (<= .def_121 0.0 )))
(let ((.def_162 (not .def_161)))
(let ((.def_163 (or .def_136 .def_162)))
(let ((.def_168 (or .def_163 .def_167)))
(let ((.def_125 (* b.y__AT0 g__AT0)))
(let ((.def_131 (<= .def_125 0.0 )))
(let ((.def_130 (<= .def_96 0.0 )))
(let ((.def_132 (and .def_130 .def_131)))
(let ((.def_169 (or .def_132 .def_168)))
(let ((.def_154 (<= .def_82 b.speed_y__AT0)))
(let ((.def_155 (not .def_154)))
(let ((.def_158 (or .def_155 .def_157)))
(let ((.def_147 (<= .def_146 0.0 )))
(let ((.def_149 (and .def_147 .def_148)))
(let ((.def_150 (or .def_136 .def_149)))
(let ((.def_153 (and .def_150 .def_152)))
(let ((.def_159 (and .def_153 .def_158)))
(let ((.def_134 (= .def_121 0.0 )))
(let ((.def_137 (and .def_134 .def_136)))
(let ((.def_126 (<= 0.0 .def_125)))
(let ((.def_129 (and .def_126 .def_128)))
(let ((.def_133 (or .def_129 .def_132)))
(let ((.def_138 (or .def_133 .def_137)))
(let ((.def_160 (or .def_138 .def_159)))
(let ((.def_170 (and .def_160 .def_169)))
(let ((.def_122 (<= 0.0 .def_121)))
(let ((.def_123 (not .def_122)))
(let ((.def_124 (or .def_102 .def_123)))
(let ((.def_171 (or .def_124 .def_170)))
(let ((.def_113 (+ b.y__AT0 .def_112)))
(let ((.def_114 (= .def_113 0.0 )))
(let ((.def_115 (not .def_114)))
(let ((.def_109 (* b.delta__AT0 .def_98)))
(let ((.def_105 (* b.y__AT0 b.speed_y__AT0)))
(let ((.def_110 (+ .def_105 .def_109)))
(let ((.def_111 (<= .def_110 0.0 )))
(let ((.def_116 (and .def_111 .def_115)))
(let ((.def_106 (<= 0.0 .def_105)))
(let ((.def_99 (* b.speed_y__AT0 .def_98)))
(let ((.def_97 (* b.y__AT0 .def_96)))
(let ((.def_100 (+ .def_97 .def_99)))
(let ((.def_101 (<= .def_100 0.0 )))
(let ((.def_104 (or .def_101 .def_103)))
(let ((.def_107 (or .def_104 .def_106)))
(let ((.def_33 (= b.speed_y__AT0 0.0 )))
(let ((.def_108 (or .def_33 .def_107)))
(let ((.def_117 (or .def_108 .def_116)))
(let ((.def_94 (not .def_93)))
(let ((.def_92 (<= 0.0 .def_91)))
(let ((.def_95 (or .def_92 .def_94)))
(let ((.def_118 (and .def_95 .def_117)))
(let ((.def_172 (and .def_118 .def_171)))
(let ((.def_173 (and .def_79 .def_172)))
(let ((.def_174 (not .def_173)))
(let ((.def_178 (or .def_174 .def_177)))
(let ((.def_179 (or .def_80 .def_178)))
(let ((.def_74 (<= 0.0 b.y__AT0)))
(let ((.def_75 (and .def_73 .def_74)))
(let ((.def_58 (or .def_55 .def_57)))
(let ((.def_48 (or .def_36 .def_38)))
(let ((.def_52 (or b.counter.3__AT0 .def_48)))
(let ((.def_49 (or b.counter.2__AT0 .def_48)))
(let ((.def_47 (or .def_38 .def_41)))
(let ((.def_50 (and .def_47 .def_49)))
(let ((.def_51 (or .def_44 .def_50)))
(let ((.def_53 (and .def_51 .def_52)))
(let ((.def_59 (and .def_53 .def_58)))
(let ((.def_76 (and .def_59 .def_75)))
(let ((.def_42 (and .def_39 .def_41)))
(let ((.def_45 (and .def_42 .def_44)))
(let ((.def_30 (= b.y__AT0 10.0 )))
(let ((.def_25 (= b.time__AT0 0.0 )))
(let ((.def_27 (and .def_25 b.event_is_timed__AT0)))
(let ((.def_31 (and .def_27 .def_30)))
(let ((.def_34 (and .def_31 .def_33)))
(let ((.def_46 (and .def_34 .def_45)))
(let ((.def_77 (and .def_46 .def_76)))
(let ((.def_17 (or b.counter.1__AT3 .def_9)))
(let ((.def_18 (or b.counter.2__AT3 .def_17)))
(let ((.def_10 (and .def_6 .def_9)))
(let ((.def_16 (or .def_4 .def_10)))
(let ((.def_19 (and .def_16 .def_18)))
(let ((.def_20 (or b.counter.3__AT3 .def_19)))
(let ((.def_11 (or b.counter.2__AT3 .def_10)))
(let ((.def_7 (or .def_4 .def_6)))
(let ((.def_12 (and .def_7 .def_11)))
(let ((.def_15 (or .def_12 .def_14)))
(let ((.def_21 (and .def_15 .def_20)))
(let ((.def_22 (not .def_21)))
(let ((.def_78 (and .def_22 .def_77)))
(let ((.def_180 (and .def_78 .def_179)))
(let ((.def_352 (and .def_180 .def_351)))
(let ((.def_446 (and .def_352 .def_445)))
(let ((.def_610 (and .def_446 .def_609)))
(let ((.def_704 (and .def_610 .def_703)))
(let ((.def_860 (and .def_704 .def_859)))
(let ((.def_954 (and .def_860 .def_953)))
.def_954)))))))))))))))))))))))))))))))))))))))))))))))))))))))))))))))))))))))))))))))))))))))))))))))))))))))))))))))))))))))))))))))))))))))))))))))))))))))))))))))))))))))))))))))))))))))))))))))))))))))))))))))))))))))))))))))))))))))))))))))))))))))))))))))))))))))))))))))))))))))))))))))))))))))))))))))))))))))))))))))))))))))))))))))))))))))))))))))))))))))))))))))))))))))))))))))))))))))))))))))))))))))))))))))))))))))))))))))))))))))))))))))))))))))))))))))))))))))))))))))))))))))))))))))))))))))))))))))))))))))))))))))))))))))))))))))))))))))))))))))))))))))))))))))))))))))))))))))))))))))))))))))))))))))))))))))))))))))))))))))))))))))))))))))))))))))))))))))))))))))))))))))))))))))))))))))))))))))))))))))))))))))))))))))))))))))))))))))))))))))))))))))))))))))))))))))))))))))))))))))))))))))))))))))))))))))))))))))))))))))))))))))))))))))))))))))))))))
(check-sat)
(exit)
